32	4
16	12	13	12
0	0	0	0	0	2	2	31
5	1	1	0	0	1	3
6	0	1	6	0	1	4
10	1	1	0	0	1	5
2	1	0	0	1	3	6	29	30
10	0	1	0	6	2	7	28
1	6	0	7	0	1	8
1	1	0	0	1	1	9
8	1	2	0	0	1	10
9	0	0	1	7	2	11	27
7	5	0	0	3	1	12
6	0	2	0	5	1	13
9	2	0	1	0	1	14
2	4	1	0	0	1	15
1	0	9	1	0	2	16	26
2	0	1	2	0	1	17
1	12	3	0	0	1	18
6	1	0	6	0	1	19
1	0	1	2	0	1	20
7	0	1	0	3	1	21
3	1	0	2	0	1	22
1	0	4	1	0	1	23
9	2	0	0	1	1	24
4	6	4	0	0	1	25
10	0	0	1	3	1	32
3	0	0	5	1	1	32
6	4	0	0	1	1	32
2	0	0	1	1	1	32
3	0	0	2	1	1	32
10	0	4	0	1	1	32
9	0	0	1	1	1	32
0	0	0	0	0	0
